!File created by the GAMESS Input Deck Generator Plugin for Avogadro
 $BASIS GBASIS=STO NGAUSS=3 $END
 $CONTRL SCFTYP=RHF RUNTYP=SADPOINT $END
 $STATPT hssend=.t. OPTTOL=0.0005 NSTEP=50 $END
 $STATPT HESS=calc ihrep=5 $END
 $FORCE nvib=2 $END
 $ZMAT DLC=.t. auto=.t. nonvdw(1)=1,6,3,4,4,5,5,6,1,2,2,3 $END
!$ZMAT IFZMAT(1)=1,1,6,1,3,4 fvalue(1)=2.00,2.00 $END

 $DATA 
Title
C1
C     6.0     0.30420348    -0.02771368    -3.50144291
C     6.0    -0.70743686     0.07201169    -2.53947210
C     6.0    -0.70213658     1.14285910    -1.63809335
C     6.0     1.00520432     0.98883605    -0.60791665
C     6.0     1.65158617    -0.13401462    -1.13896942
C     6.0     2.02805686    -0.06871574    -2.48820615
C     6.0     2.60799694     1.25000930    -2.92996597
C     6.0     2.42672944     2.35628223    -2.23734355
C     6.0     1.60440934     2.35507226    -0.96924049
O     8.0     1.42402279     3.35596752    -0.28847536
H     1.0     0.55091560     0.86309713    -4.06602335
H     1.0     0.33997115    -0.92910302    -4.10441399
H     1.0    -1.16491199    -0.85193068    -2.20510554
H     1.0    -1.44517910     1.14789665    -0.84783864
H     1.0    -0.51255357     2.13170624    -2.03849244
H     1.0     0.65198642     0.93430364     0.41777247
H     1.0     1.48097801    -1.10338938    -0.68680978
H     1.0     2.50696421    -0.93943328    -2.92546225
H     1.0     3.18676496     1.24996436    -3.84719920
H     1.0     2.86645365     3.29989672    -2.53252053
$END
